DIMACS_lns/graph-1000-987.col
p edge 1000 1844
e 1 295
e 1 169
e 1 975
e 1 66
e 2 379
e 2 356
e 2 676
e 2 740
e 2 225
e 2 328
e 2 385
e 5 41
e 5 379
e 5 489
e 5 560
e 5 110
e 5 584
e 6 265
e 6 455
e 6 634
e 6 732
e 7 370
e 7 959
e 7 566
e 7 722
e 7 120
e 8 145
e 8 878
e 8 868
e 8 426
e 8 250
e 8 792
e 9 107
e 9 240
e 9 46
e 10 304
e 10 187
e 10 973
e 10 363
e 10 602
e 10 34
e 10 281
e 10 740
e 11 165
e 11 286
e 11 635
e 11 205
e 11 657
e 11 997
e 11 99
e 12 743
e 12 980
e 12 722
e 14 593
e 14 143
e 14 79
e 16 510
e 16 24
e 16 659
e 16 126
e 16 339
e 16 107
e 16 764
e 16 360
e 17 783
e 17 901
e 17 887
e 21 805
e 21 420
e 21 742
e 22 450
e 22 965
e 22 273
e 23 312
e 23 595
e 23 153
e 23 276
e 23 337
e 24 366
e 24 875
e 24 499
e 27 497
e 27 594
e 27 989
e 27 936
e 27 140
e 27 401
e 27 69
e 28 30
e 28 589
e 28 982
e 28 778
e 28 171
e 30 604
e 30 584
e 30 237
e 31 288
e 31 183
e 31 102
e 31 786
e 31 78
e 31 778
e 32 668
e 32 297
e 32 114
e 32 863
e 34 811
e 34 292
e 34 159
e 35 510
e 35 929
e 35 767
e 35 456
e 35 345
e 36 642
e 36 880
e 36 495
e 36 726
e 36 48
e 37 309
e 37 594
e 37 368
e 37 298
e 37 413
e 37 979
e 38 808
e 38 762
e 38 252
e 38 978
e 39 200
e 39 372
e 39 997
e 39 736
e 39 607
e 39 849
e 40 571
e 40 977
e 40 349
e 41 312
e 41 607
e 41 894
e 42 933
e 42 936
e 42 252
e 42 978
e 42 737
e 42 71
e 42 721
e 44 936
e 44 907
e 44 230
e 44 675
e 44 301
e 44 525
e 44 798
e 45 147
e 45 494
e 45 788
e 46 829
e 46 109
e 46 416
e 46 368
e 46 613
e 46 998
e 46 400
e 47 132
e 47 412
e 47 534
e 47 252
e 48 739
e 48 541
e 50 687
e 50 870
e 50 245
e 50 429
e 51 890
e 51 475
e 51 647
e 52 76
e 52 738
e 52 835
e 52 780
e 52 140
e 52 310
e 54 896
e 54 408
e 54 211
e 54 624
e 54 88
e 54 452
e 54 151
e 55 506
e 55 707
e 55 548
e 56 857
e 56 945
e 56 642
e 56 455
e 57 549
e 57 686
e 57 303
e 57 94
e 59 421
e 59 151
e 59 579
e 59 150
e 59 451
e 59 905
e 59 137
e 60 959
e 60 312
e 60 871
e 61 767
e 61 603
e 61 716
e 61 409
e 61 868
e 62 591
e 62 966
e 62 743
e 65 261
e 65 611
e 65 756
e 65 206
e 65 896
e 65 899
e 66 434
e 66 646
e 67 125
e 67 199
e 67 923
e 67 986
e 68 277
e 68 656
e 68 585
e 69 371
e 69 453
e 69 377
e 69 815
e 69 560
e 71 960
e 71 978
e 71 581
e 71 412
e 71 256
e 71 264
e 72 789
e 72 887
e 72 957
e 72 258
e 74 314
e 74 372
e 74 617
e 74 763
e 76 237
e 76 908
e 77 91
e 77 751
e 77 587
e 77 522
e 77 584
e 77 520
e 77 391
e 78 219
e 78 981
e 79 157
e 79 810
e 79 865
e 79 966
e 80 433
e 80 687
e 80 656
e 80 507
e 81 256
e 81 278
e 81 496
e 81 766
e 82 808
e 82 535
e 82 877
e 84 622
e 84 495
e 84 896
e 84 431
e 84 629
e 84 759
e 84 313
e 85 889
e 85 831
e 85 964
e 87 464
e 87 194
e 87 857
e 87 185
e 87 407
e 87 771
e 88 810
e 88 673
e 88 134
e 89 636
e 89 294
e 89 270
e 89 904
e 89 389
e 91 358
e 91 561
e 91 337
e 91 265
e 91 818
e 93 470
e 93 815
e 93 323
e 93 541
e 93 861
e 93 710
e 93 994
e 93 788
e 94 215
e 94 229
e 94 705
e 97 130
e 97 598
e 97 602
e 97 302
e 99 126
e 99 472
e 99 756
e 99 251
e 99 436
e 99 152
e 100 894
e 100 717
e 100 358
e 101 910
e 101 914
e 101 855
e 101 353
e 101 517
e 102 688
e 102 716
e 102 702
e 102 655
e 103 690
e 103 128
e 103 393
e 103 363
e 103 937
e 105 358
e 105 180
e 105 452
e 105 188
e 105 810
e 105 239
e 105 730
e 106 397
e 106 577
e 106 374
e 106 489
e 106 579
e 106 196
e 106 377
e 107 781
e 107 120
e 107 538
e 107 550
e 107 164
e 108 730
e 108 305
e 108 418
e 108 408
e 109 227
e 109 394
e 110 494
e 110 563
e 111 628
e 111 543
e 111 263
e 111 949
e 112 892
e 112 897
e 112 252
e 112 120
e 113 863
e 113 977
e 113 839
e 113 236
e 113 622
e 113 970
e 114 349
e 114 277
e 114 977
e 114 141
e 115 215
e 115 675
e 115 852
e 117 949
e 117 207
e 117 118
e 118 198
e 118 450
e 118 398
e 119 915
e 119 170
e 119 232
e 119 643
e 120 781
e 120 565
e 120 796
e 120 159
e 120 477
e 121 865
e 121 159
e 121 257
e 122 669
e 122 218
e 122 453
e 122 538
e 122 981
e 122 986
e 122 498
e 125 544
e 125 613
e 125 431
e 125 599
e 125 998
e 125 245
e 126 543
e 126 650
e 126 393
e 128 241
e 128 359
e 128 515
e 130 178
e 130 796
e 130 715
e 130 570
e 132 398
e 132 141
e 132 226
e 132 386
e 132 910
e 132 189
e 134 969
e 134 965
e 134 211
e 136 193
e 136 535
e 136 467
e 136 353
e 137 174
e 137 873
e 137 374
e 138 173
e 138 972
e 138 922
e 139 686
e 139 922
e 139 689
e 140 887
e 140 685
e 140 728
e 141 620
e 141 703
e 141 885
e 141 234
e 141 599
e 142 502
e 142 264
e 142 849
e 142 174
e 142 301
e 142 620
e 142 460
e 143 174
e 143 714
e 143 989
e 143 654
e 143 173
e 143 401
e 143 822
e 144 241
e 144 953
e 144 470
e 144 314
e 144 988
e 145 712
e 145 171
e 146 783
e 146 998
e 146 909
e 146 554
e 147 992
e 147 815
e 149 739
e 149 566
e 149 951
e 150 207
e 150 605
e 151 390
e 151 561
e 151 687
e 151 964
e 151 816
e 151 529
e 151 890
e 151 215
e 151 451
e 152 290
e 152 669
e 152 497
e 153 612
e 153 948
e 153 355
e 153 714
e 153 697
e 153 992
e 154 737
e 154 472
e 154 970
e 154 874
e 154 685
e 154 960
e 155 978
e 155 746
e 155 729
e 155 593
e 155 485
e 155 562
e 157 993
e 157 866
e 157 979
e 159 276
e 159 171
e 159 161
e 159 815
e 161 197
e 161 756
e 163 313
e 163 587
e 163 304
e 163 315
e 164 992
e 164 472
e 164 213
e 164 664
e 165 425
e 165 816
e 165 782
e 165 227
e 167 919
e 167 973
e 167 848
e 167 613
e 167 692
e 169 497
e 169 794
e 169 626
e 170 851
e 170 203
e 170 873
e 170 974
e 170 928
e 171 668
e 171 510
e 171 287
e 171 499
e 171 779
e 171 850
e 171 305
e 171 577
e 173 978
e 173 407
e 174 904
e 174 201
e 174 888
e 174 302
e 175 467
e 175 374
e 175 538
e 175 436
e 177 781
e 177 687
e 177 285
e 177 209
e 177 920
e 177 872
e 177 692
e 177 510
e 177 792
e 178 952
e 178 934
e 178 211
e 178 308
e 178 547
e 180 245
e 180 472
e 182 874
e 182 237
e 182 264
e 182 612
e 183 293
e 183 226
e 183 399
e 183 466
e 185 538
e 185 394
e 185 314
e 185 283
e 185 495
e 187 767
e 187 851
e 187 460
e 187 680
e 187 432
e 187 586
e 188 929
e 188 562
e 188 432
e 189 246
e 189 790
e 190 674
e 190 831
e 190 836
e 190 819
e 193 811
e 193 575
e 194 555
e 194 821
e 194 742
e 194 658
e 196 855
e 196 382
e 196 972
e 196 747
e 196 621
e 196 261
e 196 781
e 196 669
e 197 365
e 197 773
e 197 928
e 197 349
e 197 586
e 198 586
e 198 455
e 199 605
e 199 935
e 199 817
e 200 815
e 200 875
e 200 495
e 201 426
e 201 930
e 201 786
e 203 635
e 203 922
e 205 451
e 205 472
e 206 781
e 206 221
e 206 370
e 206 442
e 206 844
e 207 467
e 207 614
e 209 960
e 209 897
e 209 266
e 210 294
e 210 351
e 210 496
e 210 632
e 210 504
e 210 896
e 211 771
e 211 383
e 211 748
e 212 552
e 212 448
e 212 992
e 213 256
e 213 683
e 213 938
e 213 429
e 213 321
e 213 432
e 215 809
e 215 310
e 215 458
e 215 281
e 215 751
e 216 717
e 216 891
e 216 488
e 218 274
e 218 660
e 218 761
e 218 423
e 219 773
e 219 659
e 219 518
e 219 976
e 219 229
e 219 284
e 220 374
e 220 670
e 220 966
e 221 614
e 221 409
e 224 395
e 224 540
e 224 603
e 225 983
e 225 748
e 225 267
e 226 422
e 226 529
e 227 461
e 227 283
e 229 354
e 229 975
e 229 374
e 230 897
e 230 382
e 232 406
e 232 453
e 234 941
e 234 855
e 234 965
e 234 729
e 234 921
e 236 882
e 236 396
e 237 417
e 237 781
e 239 863
e 239 647
e 239 793
e 239 835
e 239 498
e 239 748
e 240 562
e 240 809
e 240 548
e 240 758
e 240 953
e 240 887
e 240 811
e 241 767
e 241 344
e 241 739
e 241 335
e 242 599
e 242 739
e 242 688
e 242 589
e 243 477
e 243 451
e 243 892
e 245 309
e 245 656
e 246 478
e 246 848
e 246 812
e 246 292
e 246 391
e 246 758
e 247 966
e 247 875
e 247 378
e 247 332
e 247 803
e 248 864
e 248 508
e 248 610
e 248 681
e 250 912
e 250 479
e 250 855
e 250 803
e 251 911
e 251 326
e 252 970
e 252 765
e 252 621
e 253 763
e 253 863
e 253 674
e 253 399
e 253 752
e 253 998
e 256 547
e 256 726
e 256 349
e 256 962
e 257 896
e 257 301
e 257 344
e 257 836
e 257 560
e 258 389
e 258 783
e 258 585
e 261 606
e 261 487
e 261 438
e 261 898
e 263 642
e 263 830
e 263 703
e 264 292
e 264 508
e 264 561
e 265 958
e 265 589
e 266 612
e 266 968
e 266 739
e 266 685
e 266 836
e 267 528
e 267 830
e 268 756
e 268 658
e 268 439
e 268 960
e 269 409
e 269 447
e 269 488
e 269 547
e 270 895
e 270 983
e 272 1000
e 272 913
e 272 593
e 273 764
e 273 716
e 274 958
e 274 780
e 274 914
e 274 568
e 274 527
e 275 508
e 275 441
e 275 370
e 275 741
e 276 769
e 276 441
e 276 315
e 276 881
e 276 309
e 276 706
e 277 632
e 278 1000
e 278 512
e 278 389
e 278 878
e 278 447
e 279 868
e 279 908
e 279 852
e 279 400
e 280 616
e 280 399
e 280 385
e 281 566
e 281 559
e 281 915
e 281 413
e 281 706
e 281 626
e 281 448
e 281 807
e 281 653
e 283 336
e 283 433
e 283 811
e 283 859
e 284 640
e 284 773
e 284 975
e 285 547
e 285 785
e 285 375
e 286 624
e 286 940
e 287 344
e 287 378
e 287 595
e 288 757
e 288 582
e 290 757
e 290 456
e 290 626
e 290 492
e 292 968
e 292 548
e 293 567
e 293 475
e 294 339
e 294 394
e 295 937
e 295 533
e 295 386
e 295 869
e 296 453
e 296 839
e 296 784
e 297 350
e 297 677
e 298 872
e 298 626
e 300 432
e 300 354
e 300 988
e 301 619
e 301 365
e 301 476
e 301 362
e 302 642
e 302 385
e 302 997
e 303 554
e 303 342
e 303 456
e 303 866
e 304 881
e 304 853
e 304 839
e 304 889
e 305 332
e 306 626
e 306 859
e 306 354
e 306 846
e 308 489
e 308 902
e 309 818
e 309 697
e 309 338
e 309 418
e 309 802
e 309 943
e 310 389
e 310 751
e 311 925
e 311 924
e 311 833
e 312 568
e 313 904
e 313 696
e 314 375
e 315 430
e 316 930
e 316 637
e 316 581
e 316 836
e 316 972
e 316 494
e 317 565
e 317 945
e 317 647
e 317 616
e 320 362
e 320 939
e 320 609
e 320 789
e 321 434
e 321 565
e 321 570
e 323 537
e 323 561
e 323 545
e 326 360
e 326 582
e 326 501
e 326 426
e 327 560
e 327 993
e 327 957
e 327 705
e 328 715
e 328 456
e 332 545
e 332 575
e 332 501
e 332 833
e 333 940
e 333 980
e 333 464
e 333 967
e 333 747
e 335 802
e 335 507
e 335 518
e 335 751
e 335 353
e 335 782
e 336 688
e 336 461
e 337 943
e 337 747
e 337 800
e 337 938
e 337 798
e 338 797
e 338 617
e 339 647
e 339 833
e 340 923
e 340 954
e 340 949
e 340 993
e 342 812
e 342 495
e 344 625
e 344 458
e 344 381
e 344 931
e 344 934
e 344 912
e 344 915
e 344 945
e 345 584
e 345 802
e 349 820
e 350 609
e 350 809
e 350 425
e 350 997
e 350 696
e 351 769
e 351 910
e 352 693
e 352 488
e 352 963
e 353 475
e 353 400
e 353 869
e 354 904
e 354 441
e 354 653
e 354 948
e 354 705
e 354 964
e 355 499
e 355 649
e 355 403
e 356 611
e 356 966
e 357 976
e 357 502
e 357 561
e 357 891
e 357 897
e 358 525
e 359 765
e 359 983
e 359 545
e 360 412
e 360 430
e 360 640
e 360 867
e 362 637
e 362 666
e 363 683
e 365 837
e 365 529
e 365 766
e 365 719
e 366 512
e 366 559
e 368 681
e 368 906
e 369 651
e 369 401
e 369 618
e 369 994
e 370 535
e 370 380
e 370 611
e 371 555
e 371 661
e 371 669
e 371 752
e 371 515
e 372 912
e 372 731
e 375 677
e 375 632
e 375 911
e 375 889
e 375 385
e 375 885
e 377 549
e 377 989
e 377 972
e 378 740
e 378 535
e 379 982
e 379 602
e 380 422
e 380 609
e 380 867
e 380 669
e 381 891
e 381 757
e 381 821
e 382 577
e 382 768
e 383 659
e 383 809
e 384 797
e 384 958
e 384 529
e 384 676
e 385 418
e 385 713
e 385 732
e 385 562
e 386 884
e 389 714
e 389 427
e 390 846
e 390 603
e 391 537
e 391 624
e 391 909
e 391 585
e 393 829
e 394 938
e 395 956
e 395 665
e 395 690
e 395 704
e 395 729
e 395 940
e 396 549
e 396 934
e 397 831
e 397 857
e 398 407
e 399 518
e 400 905
e 400 988
e 401 416
e 403 423
e 403 461
e 403 619
e 404 524
e 404 742
e 404 699
e 404 720
e 406 800
e 406 911
e 408 856
e 408 998
e 409 884
e 409 530
e 409 850
e 411 692
e 411 937
e 411 811
e 412 710
e 412 580
e 412 706
e 412 781
e 412 671
e 413 979
e 413 808
e 413 438
e 416 830
e 416 916
e 416 843
e 416 653
e 417 561
e 417 815
e 417 833
e 417 874
e 417 609
e 418 866
e 418 540
e 418 669
e 418 886
e 420 917
e 420 617
e 420 720
e 421 524
e 421 741
e 421 785
e 422 702
e 422 763
e 422 711
e 423 597
e 423 916
e 423 557
e 423 877
e 424 613
e 424 636
e 424 954
e 424 685
e 425 504
e 425 818
e 425 511
e 426 610
e 426 901
e 427 598
e 427 801
e 427 578
e 427 807
e 429 672
e 429 951
e 430 914
e 431 992
e 431 695
e 432 632
e 432 561
e 433 452
e 433 753
e 434 710
e 435 585
e 435 820
e 435 506
e 435 714
e 436 790
e 438 699
e 438 479
e 438 986
e 438 958
e 439 705
e 439 603
e 441 858
e 441 539
e 441 591
e 442 777
e 442 669
e 443 956
e 443 660
e 443 889
e 443 707
e 447 502
e 447 453
e 447 492
e 447 819
e 447 693
e 448 690
e 450 476
e 450 653
e 450 861
e 450 865
e 450 768
e 450 477
e 450 699
e 451 888
e 452 494
e 452 543
e 453 738
e 453 669
e 455 866
e 455 940
e 455 530
e 455 921
e 456 520
e 456 651
e 456 787
e 456 814
e 457 647
e 457 873
e 457 753
e 458 571
e 458 819
e 458 864
e 458 776
e 459 889
e 459 617
e 459 635
e 459 613
e 459 759
e 460 673
e 460 930
e 460 979
e 461 515
e 461 810
e 461 533
e 461 580
e 461 866
e 462 850
e 462 773
e 462 849
e 464 885
e 464 629
e 464 650
e 464 647
e 466 545
e 466 930
e 466 712
e 466 914
e 467 976
e 467 689
e 467 563
e 467 468
e 467 583
e 468 994
e 468 752
e 468 745
e 470 527
e 470 787
e 470 632
e 472 960
e 472 790
e 472 853
e 474 746
e 474 520
e 474 486
e 474 707
e 475 585
e 475 653
e 475 835
e 475 610
e 476 899
e 476 907
e 476 905
e 477 793
e 477 530
e 477 674
e 478 507
e 478 537
e 479 893
e 479 749
e 479 719
e 479 678
e 479 795
e 485 904
e 485 914
e 486 989
e 486 655
e 486 507
e 487 769
e 487 897
e 487 986
e 487 930
e 488 737
e 488 693
e 492 555
e 492 570
e 492 511
e 495 678
e 495 609
e 495 928
e 496 625
e 496 964
e 496 747
e 497 933
e 497 892
e 498 502
e 498 968
e 498 937
e 498 854
e 499 575
e 499 902
e 501 752
e 502 776
e 502 617
e 504 622
e 504 967
e 504 996
e 504 749
e 506 993
e 507 994
e 508 913
e 510 651
e 510 931
e 510 543
e 510 661
e 511 951
e 512 593
e 512 844
e 512 778
e 512 525
e 512 534
e 517 711
e 517 869
e 517 533
e 518 871
e 518 934
e 518 938
e 520 743
e 521 660
e 521 978
e 521 821
e 522 767
e 522 664
e 524 830
e 524 937
e 524 901
e 524 712
e 524 963
e 525 661
e 525 922
e 525 767
e 525 657
e 527 902
e 527 569
e 528 894
e 528 946
e 529 865
e 529 583
e 529 868
e 533 789
e 534 587
e 534 546
e 534 902
e 535 668
e 535 945
e 537 595
e 538 870
e 538 802
e 539 762
e 539 830
e 540 956
e 540 869
e 540 616
e 540 778
e 540 946
e 541 567
e 541 776
e 543 568
e 543 586
e 544 736
e 544 694
e 544 624
e 545 919
e 545 996
e 546 751
e 546 621
e 547 917
e 547 657
e 547 665
e 547 986
e 547 565
e 548 732
e 548 963
e 549 882
e 549 998
e 550 980
e 550 898
e 550 731
e 552 816
e 552 715
e 554 972
e 555 805
e 555 589
e 557 629
e 557 654
e 557 714
e 559 819
e 559 998
e 560 671
e 560 979
e 561 913
e 561 705
e 561 614
e 562 798
e 562 887
e 563 717
e 565 812
e 565 982
e 565 697
e 566 960
e 566 593
e 567 849
e 567 996
e 567 688
e 568 591
e 569 658
e 569 767
e 569 697
e 569 635
e 569 808
e 569 865
e 570 945
e 570 766
e 570 643
e 571 992
e 571 856
e 571 895
e 571 912
e 571 824
e 574 655
e 574 763
e 574 916
e 575 802
e 576 595
e 576 835
e 576 839
e 576 763
e 577 857
e 577 886
e 577 761
e 578 975
e 578 969
e 579 878
e 580 620
e 580 941
e 580 977
e 581 818
e 581 768
e 582 672
e 582 636
e 582 749
e 583 956
e 583 841
e 584 654
e 584 978
e 585 790
e 585 945
e 585 884
e 586 661
e 587 681
e 589 853
e 589 793
e 590 658
e 590 884
e 590 634
e 591 606
e 594 945
e 596 837
e 596 833
e 596 693
e 597 616
e 597 854
e 597 811
e 597 864
e 598 963
e 598 722
e 599 998
e 599 681
e 599 935
e 599 818
e 599 801
e 603 664
e 603 850
e 604 857
e 604 690
e 605 675
e 605 619
e 606 967
e 607 928
e 609 612
e 609 902
e 610 940
e 612 937
e 612 765
e 612 807
e 612 835
e 613 649
e 614 857
e 616 629
e 616 722
e 617 741
e 617 790
e 618 922
e 618 867
e 618 668
e 618 858
e 618 996
e 619 837
e 620 846
e 620 784
e 621 892
e 621 622
e 622 673
e 622 871
e 625 738
e 626 785
e 628 779
e 628 808
e 632 743
e 632 939
e 632 988
e 632 690
e 634 682
e 634 886
e 634 636
e 635 824
e 635 767
e 635 665
e 636 946
e 637 975
e 637 657
e 640 793
e 640 853
e 642 936
e 642 814
e 643 779
e 643 880
e 643 908
e 646 753
e 646 769
e 646 912
e 649 972
e 649 829
e 650 740
e 651 777
e 653 805
e 656 796
e 656 699
e 657 671
e 658 978
e 659 886
e 660 880
e 661 943
e 661 778
e 661 996
e 664 844
e 665 773
e 665 889
e 666 680
e 666 739
e 666 707
e 668 736
e 669 850
e 669 795
e 669 713
e 670 965
e 670 974
e 672 696
e 672 835
e 672 771
e 673 920
e 673 953
e 674 888
e 674 785
e 675 977
e 676 868
e 677 736
e 677 925
e 678 924
e 678 758
e 678 993
e 680 843
e 680 868
e 681 785
e 682 976
e 682 689
e 683 858
e 686 962
e 686 834
e 688 979
e 688 948
e 688 759
e 688 996
e 688 699
e 689 695
e 689 904
e 690 726
e 690 817
e 693 802
e 694 834
e 694 915
e 695 896
e 697 939
e 699 895
e 702 745
e 703 891
e 703 802
e 703 780
e 703 771
e 704 858
e 704 761
e 704 970
e 704 745
e 704 785
e 706 882
e 706 953
e 707 787
e 710 716
e 710 721
e 711 728
e 712 935
e 713 914
e 713 936
e 714 884
e 716 843
e 716 821
e 719 802
e 720 972
e 721 802
e 722 940
e 726 753
e 728 993
e 729 853
e 730 949
e 731 921
e 731 854
e 737 830
e 737 833
e 740 797
e 740 1000
e 740 901
e 741 841
e 741 938
e 743 910
e 743 759
e 745 802
e 746 864
e 747 867
e 747 859
e 747 974
e 748 822
e 749 894
e 749 786
e 749 892
e 751 795
e 751 975
e 753 796
e 753 871
e 756 965
e 758 899
e 759 948
e 759 958
e 761 785
e 762 941
e 764 850
e 764 834
e 764 920
e 764 948
e 766 880
e 767 852
e 767 986
e 768 905
e 769 970
e 769 844
e 769 787
e 771 789
e 771 940
e 773 948
e 773 803
e 776 793
e 776 801
e 776 789
e 777 920
e 778 859
e 779 824
e 779 997
e 780 933
e 781 814
e 782 946
e 783 930
e 784 892
e 786 850
e 786 856
e 786 787
e 787 929
e 788 975
e 789 933
e 790 899
e 792 820
e 794 869
e 794 835
e 797 957
e 800 922
e 801 969
e 801 881
e 803 839
e 803 943
e 805 954
e 807 960
e 808 820
e 812 904
e 814 849
e 815 915
e 817 910
e 819 903
e 820 843
e 822 992
e 824 851
e 829 982
e 830 922
e 831 874
e 833 872
e 834 975
e 836 915
e 836 861
e 841 913
e 844 849
e 844 958
e 844 897
e 846 875
e 848 854
e 848 865
e 850 949
e 854 968
e 855 896
e 857 934
e 857 888
e 865 1000
e 866 890
e 868 975
e 868 980
e 868 903
e 870 963
e 870 873
e 871 893
e 875 886
e 877 939
e 877 898
e 880 931
e 882 938
e 882 952
e 886 894
e 891 945
e 891 996
e 893 959
e 896 939
e 896 929
e 896 988
e 897 945
e 902 988
e 902 993
e 903 922
e 906 908
e 906 983
e 907 965
e 908 935
e 909 983
e 910 952
e 912 977
e 912 923
e 912 973
e 917 943
e 917 997
e 919 967
e 923 954
e 924 992
e 925 957
e 928 966
e 930 980
e 949 994
e 952 962
e 953 1000
e 959 992
e 975 989
e 981 993
